============================[ Problem Statistics ]=============================|                                                                             ||  Number of variables:          4242                                         ||  Number of clauses:           10151                                         ||  Parse time:                   0.54 s                                       ||                                                                             |============================[ Search Statistics ]==============================| Conflicts |          ORIGINAL         |          LEARNT          | Progress ||           |    Vars  Clauses Literals |    Limit  Clauses Lit/Cl |          |===============================================================================|       100 |    1591     6356   859797 |     2330      100     53 | 62.501 % ||       250 |    1591     6356   859797 |     2563      250     75 | 62.495 % |===============================================================================restarts              : 3conflicts             : 300            (368 /sec)decisions             : 567            (0.00 % random) (695 /sec)propagations          : 11854          (14527 /sec)conflict literals     : 23657          (94.74 % deleted)CPU time              : 0.816 sSATISFIABLE